# Objective value = 1.0272444996465946e+05
e[1] 991.2117934
e[2] 991.0402734
e[3] 9.8932507339999950e+02
e[4] 9.8760987340000020e+02
e[5] 9.8589467339983810e+02
e[6] 9.8332187339983784e+02
e[7] 9.8074907339983747e+02
e[8] 978.176273399837
e[9] 9.7645447397423152e+02
e[10] 9.7473267454860854e+02
e[11] 9.7301087512299387e+02
e[12] 9.7283275569421539e+02
e[13] 9.7265463627969564e+02
e[14] 972.476516836651
e[15] 9.7229839742125694e+02
e[16] 9.7350802273704994e+02
e[17] 9.7471764807154352e+02
e[18] 9.7592727341550938e+02
e[19] 9.7850007341550941e+02
e[20] 9.8107287341431856e+02
e[21] 9.8364567339999837e+02
e[22] 9.8536087339999972e+02
e[23] 9.8707607339999993e+02
e[24] 988.7912734
e[25] 988.9627934
e[26] 989.1343134
pi[1] 0
pi[2] 1
pi[3] 0
pi[4] 0
pi[5] 1
pi[6] 0
pi[7] 0
pi[8] 1
pi[9] 0
pi[10] 0
pi[11] 1
pi[12] 0
pi[13] 0
pi[14] 0
pi[15] 1
pi[16] 0
pi[17] 0
pi[18] 1
pi[19] 0
pi[20] 0
pi[21] 1
pi[22] 0
pi[23] 0
pi[24] 1
pi[25] 0
e_bar 9.7122830206396736e+02
B_minus_s[0] 0
B_minus_s[1] 0
B_minus_s[2] 1
B_minus_s[3] 1
B_minus_s[4] 1
B_minus_s[5] 1
B_minus_s[6] 1
B_minus_s[7] 1
B_minus_s[8] 1
B_minus_s[9] 1
B_minus_s[10] 1
B_minus_s[11] 1
B_minus_s[12] 1
B_minus_s[13] 1
B_minus_s[14] 1
B_minus_s[15] 0
B_minus_s[16] 0
B_minus_s[17] 0
B_minus_s[18] 0
B_minus_s[19] 0
B_minus_s[20] 0
B_minus_s[21] 0
B_minus_s[22] 0
B_minus_s[23] 0
B_minus_s[24] 0
B_minus_s[25] 0
B_add_s[0] 0
B_add_s[1] 0
B_add_s[2] 0
B_add_s[3] 0
B_add_s[4] 0
B_add_s[5] 0
B_add_s[6] 0
B_add_s[7] 0
B_add_s[8] 0
B_add_s[9] 0
B_add_s[10] 0
B_add_s[11] 0
B_add_s[12] 0
B_add_s[13] 0
B_add_s[14] 0
B_add_s[15] 1
B_add_s[16] 1
B_add_s[17] 1
B_add_s[18] 1
B_add_s[19] 1
B_add_s[20] 1
B_add_s[21] 1
B_add_s[22] 1
B_add_s[23] 1
B_add_s[24] 1
B_add_s[25] 0
g_s[0] 0.17152
g_s[1] 0.17152
g_s[2] 1.71520000000055
g_s[3] 1.7151999790957531e+00
g_s[4] 1.7152000001620991e+00
g_s[5] 2.5728
g_s[6] 2.5728
g_s[7] 2.5728
g_s[8] 1.7217994047692555e+00
g_s[9] 1.7217994078865486e+00
g_s[10] 1.7217994256146767e+00
g_s[11] 1.7811942877847287e-01
g_s[12] 1.7811941450744806e-01
g_s[13] 1.7811942876723430e-01
g_s[14] 1.7811941539400777e-01
g_s[15] 1.2096252855240439e+00
g_s[16] 1.2096253344935803e+00
g_s[17] 1.2096253439658540e+00
g_s[18] 2.5728
g_s[19] 2.5728
g_s[20] 2.5727999844889675e+00
g_s[21] 1.7152000000013456e+00
g_s[22] 1.7152000000002090e+00
g_s[23] 1.7152000000000953e+00
g_s[24] 0.17152
g_s[25] 0.17152
eth_minus_s[0] 0
eth_minus_s[1] 0
eth_minus_s[2] 0
eth_minus_s[3] 0
eth_minus_s[4] 0
eth_minus_s[5] 0
eth_minus_s[6] 0
eth_minus_s[7] 0
eth_minus_s[8] 0
eth_minus_s[9] 0
eth_minus_s[10] 0
eth_minus_s[11] 0
eth_minus_s[12] 0
eth_minus_s[13] 0
eth_minus_s[14] 0
eth_minus_s[15] 0
eth_minus_s[16] 0
eth_minus_s[17] 0
eth_minus_s[18] 0
eth_minus_s[19] 0
eth_minus_s[20] 0
eth_minus_s[21] 0
eth_minus_s[22] 0
eth_minus_s[23] 0
eth_minus_s[24] 0
eth_minus_s[25] 0
eth_add_s[0] 0
eth_add_s[1] 0
eth_add_s[2] 0
eth_add_s[3] 0
eth_add_s[4] 0
eth_add_s[5] 0
eth_add_s[6] 0
eth_add_s[7] 0
eth_add_s[8] 0
eth_add_s[9] 0
eth_add_s[10] 0
eth_add_s[11] 0
eth_add_s[12] 0
eth_add_s[13] 0
eth_add_s[14] 0
eth_add_s[15] 1.2096253145033415e+00
eth_add_s[16] 1.2096253344935803e+00
eth_add_s[17] 1.2096253439658540e+00
eth_add_s[18] 2.5728
eth_add_s[19] 2.5728
eth_add_s[20] 2.5727999844889675e+00
eth_add_s[21] 1.7152000000013459e+00
eth_add_s[22] 1.7152000000002090e+00
eth_add_s[23] 1.7152000000000953e+00
eth_add_s[24] 1.7151999999999340e-01
eth_add_s[25] 0
L2R_v[0] 0.1
L2R_v[1] 1.3587513128422028e+01
L2R_v[2] 1.5528847881860166e+01
L2R_v[3] 1.6392284575586366e+01
L2R_v[4] 1.7205270083820896e+01
L2R_v[5] 1.8410546114694359e+01
L2R_v[6] 1.9531789357885277e+01
L2R_v[7] 2.0582837004029010e+01
L2R_v[8] 2.1206221142522370e+01
L2R_v[9] 2.1806471611656519e+01
L2R_v[10] 2.2385499199114559e+01
L2R_v[11] 2.2314291408326845e+01
L2R_v[12] 2.2243492530350650e+01
L2R_v[13] 2.2173100845818290e+01
L2R_v[14] 2.2103114630537615e+01
L2R_v[15] 2.1443328891785846e+01
L2R_v[16] 2.0768748835045908e+01
L2R_v[17] 2.0077831201463557e+01
L2R_v[18] 1.8706778289582839e+01
L2R_v[19] 1.7240729720400733e+01
L2R_v[20] 1.5652911833440669e+01
L2R_v[21] 1.4460660995497678e+01
L2R_v[22] 1.3173111219773734e+01
L2R_v[23] 1.1758916726832327e+01
L2R_v[24] 1.0201549190408318e+01
L2R_v[25] 0.1
L2R_v2[0] 1.0000000000000002e-02
L2R_v2[1] 1.8462051302128526e+02
L2R_v2[2] 2.4114511653795296e+02
L2R_v2[3] 2.6870699360700667e+02
L2R_v2[4] 2.9602131865722231e+02
L2R_v2[5] 3.3894820824128755e+02
L2R_v2[6] 3.8149079552080053e+02
L2R_v2[7] 4.2365317913442584e+02
L2R_v2[8] 4.4970381514556283e+02
L2R_v2[9] 4.7552220414998169e+02
L2R_v2[10] 5.0111057439355858e+02
L2R_v2[11] 4.9792760105572927e+02
L2R_v2[12] 4.9477295994776523e+02
L2R_v2[13] 4.9164640111882778e+02
L2R_v2[14] 4.8854767637068596e+02
L2R_v2[15] 4.5981635396129758e+02
L2R_v2[16] 4.3134092817322079e+02
L2R_v2[17] 4.0311930575446354e+02
L2R_v2[18] 3.4994355397560787e+02
L2R_v2[19] 2.9724276129190912e+02
L2R_v2[20] 2.4501364886546688e+02
L2R_v2[21] 2.0911071642670788e+02
L2R_v2[22] 1.7353085920852863e+02
L2R_v2[23] 1.3827212258857708e+02
L2R_v2[24] 1.0407160588432062e+02
L2R_v2[25] 1.0000000000000002e-02
L2R_E_hat[0] 5.0000000000000010e-03
L2R_E_hat[1] 9.2310256510642631e+01
L2R_E_hat[2] 1.2057255826897648e+02
L2R_E_hat[3] 1.3435349680350333e+02
L2R_E_hat[4] 1.4801065932861115e+02
L2R_E_hat[5] 1.6947410412064377e+02
L2R_E_hat[6] 1.9074539776040027e+02
L2R_E_hat[7] 2.1182658956721292e+02
L2R_E_hat[8] 2.2485190757278141e+02
L2R_E_hat[9] 2.3776110207499084e+02
L2R_E_hat[10] 2.5055528719677929e+02
L2R_E_hat[11] 2.4896380052786463e+02
L2R_E_hat[12] 2.4738647997388262e+02
L2R_E_hat[13] 2.4582320055941389e+02
L2R_E_hat[14] 2.4427383818534298e+02
L2R_E_hat[15] 2.2990817698064879e+02
L2R_E_hat[16] 2.1567046408661039e+02
L2R_E_hat[17] 2.0155965287723177e+02
L2R_E_hat[18] 1.7497177698780393e+02
L2R_E_hat[19] 1.4862138064595456e+02
L2R_E_hat[20] 1.2250682443273344e+02
L2R_E_hat[21] 1.0455535821335394e+02
L2R_E_hat[22] 8.6765429604264313e+01
L2R_E_hat[23] 6.9136061294288538e+01
L2R_E_hat[24] 5.2035802942160309e+01
L2R_E_hat[25] 5.0000000000000010e-03
L2R_a[1] 1.0763206216259635e+00
L2R_a[2] 3.2955109326415177e-01
L2R_a[3] 1.6069191388207260e-01
L2R_a[4] 1.5924863019014857e-01
L2R_a[5] 2.5027337677275852e-01
L2R_a[6] 2.4803280829938723e-01
L2R_a[7] 2.4581613580703843e-01
L2R_a[8] 1.5188104017685355e-01
L2R_a[9] 1.5052698813208742e-01
L2R_a[10] 1.4918592725964031e-01
L2R_a[11] -1.8557447165536312e-02
L2R_a[12] -1.8392263922385466e-02
L2R_a[13] -1.8228537948586476e-02
L2R_a[14] -1.8066259026036979e-02
L2R_a[15] -1.6751004203237435e-01
L2R_a[16] -1.6601810743983964e-01
L2R_a[17] -1.6453837697505752e-01
L2R_a[18] -3.1002653788981016e-01
L2R_a[19] -3.0725742003091261e-01
L2R_a[20] -3.0450741853103946e-01
L2R_a[21] -2.0932213408791966e-01
L2R_a[22] -2.0743853320126371e-01
L2R_a[23] -2.0556632824132581e-01
L2R_a[24] -1.9939666921791310e-01
L2R_a[25] -6.0670245968004088e-01
L2R_f[1] 200
L2R_f[2] 3.1036420335993341e+01
L2R_f[3] 0
L2R_f[4] 0
L2R_f[5] 0
L2R_f[6] 0
L2R_f[7] 0
L2R_f[8] 0
L2R_f[9] 0
L2R_f[10] 0
L2R_f[11] 0
L2R_f[12] 0
L2R_f[13] 0
L2R_f[14] 0
L2R_f[15] 0
L2R_f[16] 0
L2R_f[17] 0
L2R_f[18] 0
L2R_f[19] 0
L2R_f[20] 0
L2R_f[21] 0
L2R_f[22] 0
L2R_f[23] 0
L2R_f[24] 0
L2R_f[25] 0
L2R_b[1] 0
L2R_b[2] 0
L2R_b[3] 0
L2R_b[4] 0
L2R_b[5] 0
L2R_b[6] 0
L2R_b[7] 0
L2R_b[8] 0
L2R_b[9] 0
L2R_b[10] 0
L2R_b[11] 0
L2R_b[12] 0
L2R_b[13] 0
L2R_b[14] 0
L2R_b[15] 2.8802291041074573e-07
L2R_b[16] 2.8821572328752159e-07
L2R_b[17] 2.8842672605833291e-07
L2R_b[18] 2.8859069800546427e-07
L2R_b[19] 2.8883456337780450e-07
L2R_b[20] 2.6602265990050006e-07
L2R_b[21] 0
L2R_b[22] 0
L2R_b[23] 0
L2R_b[24] 3.0328783016690551e+01
L2R_b[25] 1.0687144845963093e+02
L2R_f_max[1] 200
L2R_f_max[2] 200
L2R_f_max[3] 200
L2R_f_max[4] 200
L2R_f_max[5] 200
L2R_f_max[6] 200
L2R_f_max[7] 200
L2R_f_max[8] 200
L2R_f_max[9] 200
L2R_f_max[10] 200
L2R_f_max[11] 200
L2R_f_max[12] 200
L2R_f_max[13] 200
L2R_f_max[14] 200
L2R_f_max[15] 200
L2R_f_max[16] 200
L2R_f_max[17] 200
L2R_f_max[18] 200
L2R_f_max[19] 200
L2R_f_max[20] 200
L2R_f_max[21] 200
L2R_f_max[22] 200
L2R_f_max[23] 200
L2R_f_max[24] 200
L2R_f_max[25] 200
L2R_b_max[1] 200
L2R_b_max[2] 200
L2R_b_max[3] 200
L2R_b_max[4] 200
L2R_b_max[5] 200
L2R_b_max[6] 200
L2R_b_max[7] 200
L2R_b_max[8] 200
L2R_b_max[9] 200
L2R_b_max[10] 200
L2R_b_max[11] 200
L2R_b_max[12] 200
L2R_b_max[13] 200
L2R_b_max[14] 200
L2R_b_max[15] 200
L2R_b_max[16] 200
L2R_b_max[17] 200
L2R_b_max[18] 200
L2R_b_max[19] 200
L2R_b_max[20] 200
L2R_b_max[21] 200
L2R_b_max[22] 200
L2R_b_max[23] 200
L2R_b_max[24] 200
L2R_b_max[25] 200
L2R_gamma[1] 1
L2R_gamma[2] 1
L2R_gamma[3] 1
L2R_gamma[4] 1
L2R_gamma[5] 1
L2R_gamma[6] 1
L2R_gamma[7] 1
L2R_gamma[8] 1
L2R_gamma[9] 1
L2R_gamma[10] 1
L2R_gamma[11] 1
L2R_gamma[12] 1
L2R_gamma[13] 1
L2R_gamma[14] 1
L2R_gamma[15] 0
L2R_gamma[16] 0
L2R_gamma[17] 0
L2R_gamma[18] 0
L2R_gamma[19] 0
L2R_gamma[20] 0
L2R_gamma[21] 0
L2R_gamma[22] 0
L2R_gamma[23] 0
L2R_gamma[24] 0
L2R_gamma[25] 0
L2R_t[1] 1.2623354868465112e+01
L2R_t[2] 5.9171511032889184e+00
L2R_t[3] 5.3771771732406828e+00
L2R_t[4] 5.1081244139252835e+00
L2R_t[5] 4.8213594663649131e+00
L2R_t[6] 4.5244952133393825e+00
L2R_t[7] 4.27868447497487
L2R_t[8] 4.1053372402566657e+00
L2R_t[9] 3.9884368683311409e+00
L2R_t[10] 3.8819144727980759e+00
L2R_t[11] 3.8371641777362493e+00
L2R_t[12] 3.8493932568439053e+00
L2R_t[13] 3.8616295792841595e+00
L2R_t[14] 3.8738728390189778e+00
L2R_t[15] 3.9396875997335541e+00
L2R_t[16] 4.0643300182603310e+00
L2R_t[17] 4.2003293395903105e+00
L2R_t[18] 4.4279060946111812e+00
L2R_t[19] 4.7793509618128027e+00
L2R_t[20] 5.2265601113211320e+00
L2R_t[21] 5.7047127097581658e+00
L2R_t[22] 6.2204019169772931e+00
L2R_t[23] 6.9017100224349752e+00
L2R_t[24] 7.8498775777257537e+00
L2R_t[25] 1.6813132672169647e+01
L2R_Psi_t[1] 7.3596985006131321e-02
L2R_Psi_t[2] 6.4396277663852822e-02
L2R_Psi_t[3] 6.1004309398662880e-02
L2R_Psi_t[4] 5.8121726373848527e-02
L2R_Psi_t[5] 5.4316694017123753e-02
L2R_Psi_t[6] 5.1198586144709006e-02
L2R_Psi_t[7] 0.0485841674694433
L2R_Psi_t[8] 4.7155973394751423e-02
L2R_Psi_t[9] 4.5857946109239239e-02
L2R_Psi_t[10] 4.4671775737730887e-02
L2R_Psi_t[11] 4.4814329153505542e-02
L2R_Psi_t[12] 4.4956968813936335e-02
L2R_Psi_t[13] 4.5099691150712183e-02
L2R_Psi_t[14] 4.5242492595066318e-02
L2R_Psi_t[15] 4.6634550309166939e-02
L2R_Psi_t[16] 0.0481492654151879
L2R_Psi_t[17] 4.9806176273018268e-02
L2R_Psi_t[18] 5.3456559142354594e-02
L2R_Psi_t[19] 5.8002185302905879e-02
L2R_Psi_t[20] 6.3885876994695237e-02
L2R_Psi_t[21] 0.0691531320948157
L2R_Psi_t[22] 7.5912211118276465e-02
L2R_Psi_t[23] 8.5041847240752144e-02
L2R_Psi_t[24] 9.8024327612929424e-02
L2R_phi_n[1] 2.4174644708541819e+04
L2R_phi_n[2] 3.0797537849709124e+03
L2R_phi_n[3] 1.3276980674668353e+03
L2R_phi_n[4] 1.2612652873889588e+03
L2R_phi_n[5] 1.1904591274975094e+03
L2R_phi_n[6] 1117.15931193565
L2R_phi_n[7] 1.0564653024629308e+03
L2R_phi_n[8] 1.0136635161127570e+03
L2R_phi_n[9] 9.8479922674842976e+02
L2R_phi_n[10] 9.5849740069088284e+02
L2R_phi_n[11] 9.4744794512006149e+02
L2R_phi_n[12] 7.8877015771662320e+02
L2R_phi_n[13] 9.5348878500843443e+02
L2R_phi_n[14] 9.5651181210345123e+02
L2R_phi_n[15] 9.7276237030458117e+02
L2R_phi_n[16] 1.0035382761136615e+03
L2R_phi_n[17] 1.0371183554543977e+03
L2R_phi_n[18] 0
L2R_phi_n[19] 1.1800866572377290e+03
L2R_phi_n[20] 5.0514101342288484e+02
L2R_phi_n[21] 0
L2R_phi_n[22] 9.5084258245328647e+02
L2R_phi_n[23] 3.3391321697318881e+02
L2R_phi_n[24] 1.5123999131357850e+03
L2R_phi_n[25] 0
L2R_phi_b[1] 1.0578751086033481e+02
L2R_phi_b[2] 1.5005700698290373e+03
L2R_phi_b[3] 0
L2R_phi_b[4] 0
L2R_phi_b[5] 0
L2R_phi_b[6] 0
L2R_phi_b[7] 0
L2R_phi_b[8] 0
L2R_phi_b[9] 0
L2R_phi_b[10] 0
L2R_phi_b[11] 0
L2R_phi_b[12] 1.4552758179812918e+02
L2R_phi_b[13] 0
L2R_phi_b[14] 0
L2R_phi_b[15] 0
L2R_phi_b[16] 0
L2R_phi_b[17] 0
L2R_phi_b[18] 9.8397913213582842e+02
L2R_phi_b[19] 0
L2R_phi_b[20] 7.0683089043521068e+02
L2R_phi_b[21] 1.2677139355018239e+03
L2R_phi_b[22] 5.2655321289810718e+02
L2R_phi_b[23] 1.2331914430430134e+03
L2R_phi_b[24] 3.8325731767240524e+02
L2R_phi_b[25] 3.7362517049265894e+03
L2R_w0[1] 2.0905450000000005e+00
L2R_w0[2] 3.42269096329689
L2R_w0[3] 3.8091259667389239e+00
L2R_w0[4] 3.99673984728629
L2R_w0[5] 4.18225021809339
L2R_w0[6] 4.4730867054923742e+00
L2R_w0[7] 4.76060170659248
L2R_w0[8] 5.0449574670132531e+00
L2R_w0[9] 5.2203957656428770e+00
L2R_w0[10] 5.3940977487691146e+00
L2R_w0[11] 5.5660966257094540e+00
L2R_w0[12] 5.5447094626638433e+00
L2R_w0[13] 5.52351046645791
L2R_w0[14] 5.5024979955614
L2R_w0[15] 5.4816704197887276e+00
L2R_w0[16] 5.2884509238879360e+00
L2R_w0[17] 5.0967497717093853e+00
L2R_w0[18] 4.9065382331783560e+00
L2R_w0[19] 4.5474595280793633e+00
L2R_w0[20] 4.1905370996573366e+00
L2R_w0[21] 3.8354872535932532e+00
L2R_w0[22] 3.5904341345294788e+00
L2R_w0[23] 3.3465470748092185e+00
L2R_w0[24] 3.1035061807487083e+00
L2R_w0[25] 2.8659406203140856e+00
L2R_wi[1] -3.4593999999997322e+00
L2R_wi[2] -3.4594000000011874e+01
L2R_wi[3] -3.4593999578380640e+01
L2R_wi[4] -3.4594000003263425e+01
L2R_wi[5] -5.1891000000000538e+01
L2R_wi[6] -5.1891000000000993e+01
L2R_wi[7] -5.1891000000001476e+01
L2R_wi[8] -3.4727104320561921e+01
L2R_wi[9] -3.4727104382562544e+01
L2R_wi[10] -3.4727104320133236e+01
L2R_wi[11] -3.5925044529478
L2R_wi[12] -3.5925043839506330e+00
L2R_wi[13] -3.5925044519028191e+00
L2R_wi[14] -3.5925043841006428e+00
L2R_wi[15] 2.4397025503680432e+01
L2R_wi[16] 2.4397025610475616e+01
L2R_wi[17] 2.4397025512893386e+01
L2R_wi[18] 5.1890999727834419e+01
L2R_wi[19] 5.1890999670287279e+01
L2R_wi[20] 5.1890999711031704e+01
L2R_wi[21] 3.4594000005390789e+01
L2R_wi[22] 3.4593999999980454e+01
L2R_wi[23] 34.5940000000046
L2R_wi[24] 3.4593999999997322e+00
L2R_wi[25] 3.4593999999997322e+00
L2R_wtn[1] 2.9900000000000005e-05
L2R_wtn[2] 0.552015333933643
L2R_wtn[3] 7.2102389844847936e-01
L2R_wtn[4] 0.80343391088495
L2R_wtn[5] 8.8510374278509474e-01
L2R_wtn[6] 1.0134551426414498e+00
L2R_wtn[7] 1.1406574786071937e+00
L2R_wtn[8] 1.2667230056119334e+00
L2R_wtn[9] 1.3446144072852328e+00
L2R_wtn[10] 1.4218113904084453e+00
L2R_wtn[11] 1.4983206174367403e+00
L2R_wtn[12] 1.4888035271566307e+00
L2R_wtn[13] 1.4793711502438180e+00
L2R_wtn[14] 1.4700227393452951e+00
L2R_wtn[15] 1.4607575523483511e+00
L2R_wtn[16] 1.3748508983442798e+00
L2R_wtn[17] 1.2897093752379303e+00
L2R_wtn[18] 1.2053267242058461e+00
L2R_wtn[19] 1.0463312263870677e+00
L2R_wtn[20] 8.8875585626280829e-01
L2R_wtn[21] 0.732590810107746
L2R_wtn[22] 6.2524104211585663e-01
L2R_wtn[23] 5.1885726903350060e-01
L2R_wtn[24] 4.1343364653984549e-01
L2R_wtn[25] 3.1117410159411868e-01
L2R_T 1.4017609417226410e+02
L2R_varpi[0] 60
L2R_varpi[1] 5.9160416580473530e+01
L2R_varpi[2] 4.7251130311989115e+01
L2R_varpi[3] 4.7251130311989115e+01
L2R_varpi[4] 47.2511303119894
L2R_varpi[5] 4.7251130311990309e+01
L2R_varpi[6] 4.7251130311990309e+01
L2R_varpi[7] 4.7251130311990309e+01
L2R_varpi[8] 4.7251130311990593e+01
L2R_varpi[9] 4.7251130311990906e+01
L2R_varpi[10] 4.7251130311991226e+01
L2R_varpi[11] 4.7251130311991226e+01
L2R_varpi[12] 4.6096149504069565e+01
L2R_varpi[13] 4.6096149504069565e+01
L2R_varpi[14] 4.6096149504069565e+01
L2R_varpi[15] 4.6096149680504368e+01
L2R_varpi[16] 4.6096149857057277e+01
L2R_varpi[17] 4.6096150033739448e+01
L2R_varpi[18] 3.8286792018967930e+01
L2R_varpi[19] 3.8286792195899729e+01
L2R_varpi[20] 3.2677023387149760e+01
L2R_varpi[21] 2.2615801678530033e+01
L2R_varpi[22] 1.8436807925370452e+01
L2R_varpi[23] 8.6495742546167520e+00
L2R_varpi[24] 2.4186395450552006e+01
L2R_varpi[25] 60
L2R_kappa_plus[0] 0
L2R_kappa_plus[1] 500
L2R_kappa_plus[2] 500
L2R_kappa_plus[3] 500
L2R_kappa_plus[4] 500
L2R_kappa_plus[5] 500
L2R_kappa_plus[6] 500
L2R_kappa_plus[7] 500
L2R_kappa_plus[8] 500
L2R_kappa_plus[9] 500
L2R_kappa_plus[10] 500
L2R_kappa_plus[11] 500
L2R_kappa_plus[12] 500
L2R_kappa_plus[13] 500
L2R_kappa_plus[14] 500
L2R_kappa_plus[15] 500
L2R_kappa_plus[16] 5.3000493962729827e-06
L2R_kappa_plus[17] 500
L2R_kappa_plus[18] 5.4002807510627363e-06
L2R_kappa_plus[19] 3.9285330485411577e-06
L2R_kappa_plus[20] 0
L2R_kappa_plus[21] 0
L2R_kappa_plus[22] 4.2428858463434904e+02
L2R_kappa_plus[23] 2.9820806314261614e+02
L2R_kappa_plus[24] 4.9061445234480362e+02
L2R_kappa_plus[25] 0
L2R_kappa_minus[0] 500
L2R_kappa_minus[1] 500
L2R_kappa_minus[2] 500
L2R_kappa_minus[3] 500
L2R_kappa_minus[4] 500
L2R_kappa_minus[5] 500
L2R_kappa_minus[6] 500
L2R_kappa_minus[7] 500
L2R_kappa_minus[8] 500
L2R_kappa_minus[9] 500
L2R_kappa_minus[10] 500
L2R_kappa_minus[11] 500
L2R_kappa_minus[12] 500
L2R_kappa_minus[13] 500
L2R_kappa_minus[14] 500
L2R_kappa_minus[15] 500
L2R_kappa_minus[16] 0
L2R_kappa_minus[17] 500
L2R_kappa_minus[18] 0
L2R_kappa_minus[19] 4.8900153876548103e+02
L2R_kappa_minus[20] 2.2222222222222223e+02
L2R_kappa_minus[21] 84.6493876000182
L2R_kappa_minus[22] 4.2428858463434904e+02
L2R_kappa_minus[23] 4.8823349648140827e+01
L2R_kappa_minus[24] 2.2222222222222223e+02
L2R_kappa_minus[25] 0
L2R_xi[1] 0
L2R_xi[2] 0
L2R_xi[3] 0
L2R_xi[4] 0
L2R_xi[5] 0
L2R_xi[6] 0
L2R_xi[7] 0
L2R_xi[8] 0
L2R_xi[9] 0
L2R_xi[10] 0
L2R_xi[11] 0
L2R_xi[12] 0
L2R_xi[13] 0
L2R_xi[14] 0
L2R_xi[15] 2.2230784873499952e-05
L2R_xi[16] 2.2245666942581021e-05
L2R_xi[17] 2.2261952980443323e-05
L2R_xi[18] 2.2274617176663024e-05
L2R_xi[19] 2.2293406939752462e-05
L2R_xi[20] 2.0532714127512020e-05
L2R_xi[21] 2.1573806134256316e-07
L2R_xi[22] 0
L2R_xi[23] 5.2804726510657972e-07
L2R_xi[24] 2.3408967883602481e+03
L2R_xi[25] 8.2487658779081685e+03
R2L_v[0] 0.1
R2L_v[1] 1.0201549190395879e+01
R2L_v[2] 1.1790574565106924e+01
R2L_v[3] 1.3201635765661683e+01
R2L_v[4] 1.4486886644911809e+01
R2L_v[5] 1.6179645795903326e+01
R2L_v[6] 1.7724604240538639e+01
R2L_v[7] 1.9157634612698164e+01
R2L_v[8] 2.0111371466458497e+01
R2L_v[9] 2.1029897493321794e+01
R2L_v[10] 2.1917701120674430e+01
R2L_v[11] 2.2137236889762210e+01
R2L_v[12] 2.2356559741763775e+01
R2L_v[13] 2.2575692730271239e+01
R2L_v[14] 2.2794658168120375e+01
R2L_v[15] 2.2443921167042383e+01
R2L_v[16] 2.2084389022912056e+01
R2L_v[17] 2.1715594160496114e+01
R2L_v[18] 2.0732487749050492e+01
R2L_v[19] 19.6908448452873
R2L_v[20] 1.8580717938131343e+01
R2L_v[21] 1.7843035094294930e+01
R2L_v[22] 1.7066395789236527e+01
R2L_v[23] 1.6245135726953094e+01
R2L_v[24] 1.3587513128422026e+01
R2L_v[25] 0.1
R2L_v2[0] 1.0000000000000002e-02
R2L_v2[1] 1.0407160588406681e+02
R2L_v2[2] 1.3901764857534630e+02
R2L_v2[3] 1.7428318688919774e+02
R2L_v2[4] 209.869884662524
R2L_v2[5] 2.6178093808089216e+02
R2L_v2[6] 314.16159548372
R2L_v2[7] 3.6701496395365075e+02
R2L_v2[8] 4.0446726226188065e+02
R2L_v2[9] 4.4225658857962230e+02
R2L_v2[10] 4.8038562241521294e+02
R2L_v2[11] 4.9005725711344871e+02
R2L_v2[12] 4.9981576348705244e+02
R2L_v2[13] 5.0966190225162154e+02
R2L_v2[14] 5.1959644100145692e+02
R2L_v2[15] 5.0372959735241290e+02
R2L_v2[16] 4.8772023851531827e+02
R2L_v2[17] 4.7156702974337259e+02
R2L_v2[18] 4.2983604826452870e+02
R2L_v2[19] 3.8772937072117747e+02
R2L_v2[20] 3.4524307909639583e+02
R2L_v2[21] 3.1837390137624044e+02
R2L_v2[22] 2.9126186523487024e+02
R2L_v2[23] 2.6390443478712785e+02
R2L_v2[24] 1.8462051302128526e+02
R2L_v2[25] 1.0000000000000002e-02
R2L_E_hat[0] 5.0000000000000010e-03
R2L_E_hat[1] 3.1250019858173630e+02
R2L_E_hat[2] 3.1250019858173630e+02
R2L_E_hat[3] 3.1250019858173630e+02
R2L_E_hat[4] 3.1250019858173630e+02
R2L_E_hat[5] 3.1250019858173630e+02
R2L_E_hat[6] 4.0376498731296806e+02
R2L_E_hat[7] 3.1250019858173994e+02
R2L_E_hat[8] 3.1250019858173630e+02
R2L_E_hat[9] 3.1250019858173630e+02
R2L_E_hat[10] 3.1250019858173630e+02
R2L_E_hat[11] 3.1250019858173630e+02
R2L_E_hat[12] 3.1250019858174016e+02
R2L_E_hat[13] 3.1250019858174005e+02
R2L_E_hat[14] 3.1250019858174005e+02
R2L_E_hat[15] 3.1250019858173630e+02
R2L_E_hat[16] 3.1250019858173630e+02
R2L_E_hat[17] 3.1250019858173630e+02
R2L_E_hat[18] 5.6829444374414152e+02
R2L_E_hat[19] 3.1250019858173630e+02
R2L_E_hat[20] 3.1250019858174062e+02
R2L_E_hat[21] 3.1250019858174016e+02
R2L_E_hat[22] 3.1250019858173630e+02
R2L_E_hat[23] 3.1250019858173630e+02
R2L_E_hat[24] 3.1250019858173630e+02
R2L_E_hat[25] 3.1250019858173630e+02
R2L_a[1] -6.0670245967856118e-01
R2L_a[2] -2.0374325263106441e-01
R2L_a[3] -2.0560598363952817e-01
R2L_a[4] -2.0747841518964116e-01
R2L_a[5] -3.0265306330672415e-01
R2L_a[6] -3.0539095967134511e-01
R2L_a[7] -3.0814697102339617e-01
R2L_a[8] -2.1835528397990078e-01
R2L_a[9] -2.2032023272938317e-01
R2L_a[10] -2.2230080361236504e-01
R2L_a[11] -5.6387795582077516e-02
R2L_a[12] -5.6894276898355134e-02
R2L_a[13] -5.7405193356875328e-02
R2L_a[14] -5.7920585062019248e-02
R2L_a[15] 9.2507250752342784e-02
R2L_a[16] 9.3338146205063088e-02
R2L_a[17] 9.4176823530454534e-02
R2L_a[18] 2.4330096477869356e-01
R2L_a[19] 2.4549135694583590e-01
R2L_a[20] 2.4770459202880502e-01
R2L_a[21] 1.5665332159605105e-01
R2L_a[22] 1.5806924056302232e-01
R2L_a[23] 1.5949994432501358e-01
R2L_a[24] 4.6224301402660095e-01
R2L_a[25] 1.0763206216259635e+00
R2L_f[1] 0
R2L_f[2] 0
R2L_f[3] 0
R2L_f[4] 0
R2L_f[5] 0
R2L_f[6] 0
R2L_f[7] 0
R2L_f[8] 0
R2L_f[9] 0
R2L_f[10] 0
R2L_f[11] 0
R2L_f[12] 0
R2L_f[13] 0
R2L_f[14] 0
R2L_f[15] 0
R2L_f[16] 0
R2L_f[17] 0
R2L_f[18] 0
R2L_f[19] 0
R2L_f[20] 0
R2L_f[21] 0
R2L_f[22] 0
R2L_f[23] 0
R2L_f[24] 8.6996351791468527e+01
R2L_f[25] 200
R2L_b[1] 1.0687144845935661e+02
R2L_b[2] 8.6559521150775275e-07
R2L_b[3] 3.3751212755150119e-07
R2L_b[4] 4.21503557390679e-07
R2L_b[5] 0
R2L_b[6] 0
R2L_b[7] 0
R2L_b[8] 0
R2L_b[9] 0
R2L_b[10] 0
R2L_b[11] 0
R2L_b[12] 0
R2L_b[13] 0
R2L_b[14] 0
R2L_b[15] 0
R2L_b[16] 0
R2L_b[17] 0
R2L_b[18] 0
R2L_b[19] 0
R2L_b[20] 0
R2L_b[21] 0
R2L_b[22] 0
R2L_b[23] 0
R2L_b[24] 0
R2L_b[25] 0
R2L_f_max[1] 200
R2L_f_max[2] 200
R2L_f_max[3] 200
R2L_f_max[4] 200
R2L_f_max[5] 200
R2L_f_max[6] 1.7472991793437785e+02
R2L_f_max[7] 200
R2L_f_max[8] 200
R2L_f_max[9] 200
R2L_f_max[10] 200
R2L_f_max[11] 200
R2L_f_max[12] 200
R2L_f_max[13] 200
R2L_f_max[14] 200
R2L_f_max[15] 200
R2L_f_max[16] 200
R2L_f_max[17] 200
R2L_f_max[18] 1.4721715512577640e+02
R2L_f_max[19] 200
R2L_f_max[20] 200
R2L_f_max[21] 200
R2L_f_max[22] 200
R2L_f_max[23] 200
R2L_f_max[24] 200
R2L_f_max[25] 200
R2L_b_max[1] 200
R2L_b_max[2] 200
R2L_b_max[3] 200
R2L_b_max[4] 200
R2L_b_max[5] 200
R2L_b_max[6] 1.7472991793437728e+02
R2L_b_max[7] 200
R2L_b_max[8] 200
R2L_b_max[9] 200
R2L_b_max[10] 200
R2L_b_max[11] 200
R2L_b_max[12] 200
R2L_b_max[13] 200
R2L_b_max[14] 200
R2L_b_max[15] 200
R2L_b_max[16] 200
R2L_b_max[17] 200
R2L_b_max[18] 1.4721715512577634e+02
R2L_b_max[19] 200
R2L_b_max[20] 200
R2L_b_max[21] 200
R2L_b_max[22] 200
R2L_b_max[23] 200
R2L_b_max[24] 200
R2L_b_max[25] 200
R2L_gamma[1] 0
R2L_gamma[2] 0
R2L_gamma[3] 0
R2L_gamma[4] 0
R2L_gamma[5] 1
R2L_gamma[6] 1
R2L_gamma[7] 1
R2L_gamma[8] 1
R2L_gamma[9] 1
R2L_gamma[10] 1
R2L_gamma[11] 1
R2L_gamma[12] 1
R2L_gamma[13] 1
R2L_gamma[14] 1
R2L_gamma[15] 1
R2L_gamma[16] 1
R2L_gamma[17] 1
R2L_gamma[18] 1
R2L_gamma[19] 1
R2L_gamma[20] 1
R2L_gamma[21] 1
R2L_gamma[22] 0
R2L_gamma[23] 0
R2L_gamma[24] 1
R2L_gamma[25] 1
R2L_t[1] 1.6813132672190179e+01
R2L_t[2] 7.8400864267198784e+00
R2L_t[3] 6.8848855994632885e+00
R2L_t[4] 6.2080005793353719e+00
R2L_t[5] 5.6101616703788260e+00
R2L_t[6] 5.0694793943461951e+00
R2L_t[7] 4.6575081118082347e+00
R2L_t[8] 4.3703992432400280e+00
R2L_t[9] 4.17112894897482
R2L_t[10] 3.9954114147707127e+00
R2L_t[11] 3.8934173359823441e+00
R2L_t[12] 3.8550130729118788e+00
R2L_t[13] 3.8173933027124773e+00
R2L_t[14] 3.7805304949433531e+00
R2L_t[15] 3.7916820813738927e+00
R2L_t[16] 3.8521826216523571e+00
R2L_t[17] 3.9162608859628070e+00
R2L_t[18] 4.0428694105307690e+00
R2L_t[19] 4.2459133217868308e+00
R2L_t[20] 4.4854305067285827e+00
R2L_t[21] 4.7109473332148557e+00
R2L_t[22] 4.9157184728673426e+00
R2L_t[23] 5.1520992344901941e+00
R2L_t[24] 5.7953980732659263e+00
R2L_t[25] 1.2623354868251589e+01
R2L_Psi_t[1] 9.8024327613048967e-02
R2L_Psi_t[2] 8.4813508830977935e-02
R2L_Psi_t[3] 7.5748188917699522e-02
R2L_Psi_t[4] 6.9027943995905242e-02
R2L_Psi_t[5] 6.1806050182705435e-02
R2L_Psi_t[6] 5.6418749125741310e-02
R2L_Psi_t[7] 5.2198510944413495e-02
R2L_Psi_t[8] 4.9723113198311117e-02
R2L_Psi_t[9] 4.7551349231139031e-02
R2L_Psi_t[10] 4.5625222941685452e-02
R2L_Psi_t[11] 4.5172755975813279e-02
R2L_Psi_t[12] 4.4729601135004821e-02
R2L_Psi_t[13] 4.4295429245416795e-02
R2L_Psi_t[14] 0.0438699274463592
R2L_Psi_t[15] 4.4555494227472285e-02
R2L_Psi_t[16] 0.0452808542252413
R2L_Psi_t[17] 4.6049856734712249e-02
R2L_Psi_t[18] 4.8233478398934451e-02
R2L_Psi_t[19] 5.0785022575571936e-02
R2L_Psi_t[20] 5.3819233644777545e-02
R2L_Psi_t[21] 5.6044276924598804e-02
R2L_Psi_t[22] 5.8594679998613550e-02
R2L_Psi_t[23] 0.0615568879699079
R2L_Psi_t[24] 7.3596985006131321e-02
R2L_phi_n[1] 0
R2L_phi_n[2] 1.9358238090666366e+03
R2L_phi_n[3] 1.0408573264513739e+03
R2L_phi_n[4] 1.5328396492186102e+03
R2L_phi_n[5] 1.3852251037972410e+03
R2L_phi_n[6] 842.63983110082
R2L_phi_n[7] 1.1500020029156135e+03
R2L_phi_n[8] 0
R2L_phi_n[9] 1.0299083824629186e+03
R2L_phi_n[10] 0
R2L_phi_n[11] 9.6133761382280090e+02
R2L_phi_n[12] 0
R2L_phi_n[13] 9.4256624758332771e+02
R2L_phi_n[14] 5.24486164438963
R2L_phi_n[15] 9.3621779759256083e+02
R2L_phi_n[16] 9.5115620259958030e+02
R2L_phi_n[17] 9.6697799625647247e+02
R2L_phi_n[18] 9.9823936034731832e+02
R2L_phi_n[19] 1.0483736594228772e+03
R2L_phi_n[20] 1.1075137050874955e+03
R2L_phi_n[21] 1.1631968723987297e+03
R2L_phi_n[22] 1.2137576473439574e+03
R2L_phi_n[23] 1.2721232674977368e+03
R2L_phi_n[24] 1.0641835486777192e+04
R2L_phi_n[25] 2.4292186387222806e+04
R2L_phi_b[1] 3.7362517049311518e+03
R2L_phi_b[2] 0
R2L_phi_b[3] 5.9320298385227193e+02
R2L_phi_b[4] 0
R2L_phi_b[5] 0
R2L_phi_b[6] 3.6817512853063863e+02
R2L_phi_b[7] 0
R2L_phi_b[8] 9.7119983183112652e+02
R2L_phi_b[9] 0
R2L_phi_b[10] 8.8786920328239046e+02
R2L_phi_b[11] 0
R2L_phi_b[12] 8.5666957175821051e+02
R2L_phi_b[13] 0
R2L_phi_b[14] 8.3539751228523892e+02
R2L_phi_b[15] 2.4978240276141156e-07
R2L_phi_b[16] 2.4979046031603508e-07
R2L_phi_b[17] 2.4979851787065860e-07
R2L_phi_b[18] 2.4980657542528212e-07
R2L_phi_b[19] 2.4981731883144681e-07
R2L_phi_b[20] 2.4982806223761150e-07
R2L_phi_b[21] 0
R2L_phi_b[22] 2.4984775848224677e-07
R2L_phi_b[23] 2.4985760660456441e-07
R2L_phi_b[24] 0
R2L_phi_b[25] 0
R2L_w0[1] 2.8659406203123137e+00
R2L_w0[2] 3.1086623464777992e+00
R2L_w0[3] 3.35171674528327
R2L_w0[4] 3.5956257394265418e+00
R2L_w0[5] 3.9496366263256517e+00
R2L_w0[6] 4.3052514922014584e+00
R2L_w0[7] 4.6628420849031729e+00
R2L_w0[8] 4.9156286450735180e+00
R2L_w0[9] 5.1702608212020982e+00
R2L_w0[10] 5.4268000166814936e+00
R2L_w0[11] 5.4918170927570866e+00
R2L_w0[12] 5.5573967481351252e+00
R2L_w0[13] 5.6235441533921984e+00
R2L_w0[14] 5.69026451655705
R2L_w0[15] 5.5836928102276993e+00
R2L_w0[16] 5.4761085627741073e+00
R2L_w0[17] 5.3674985161047841e+00
R2L_w0[18] 5.0866126936601326e+00
R2L_w0[19] 4.8027111891714691e+00
R2L_w0[20] 4.51567104992026
R2L_w0[21] 4.3337921028696531e+00
R2L_w0[22] 4.1499528027611747e+00
R2L_w0[23] 3.9640811562404714e+00
R2L_w0[24] 3.4226909632968905e+00
R2L_w0[25] 2.0905450000000005e+00
R2L_wi[1] 3.4593999999997322e+00
R2L_wi[2] 3.4594000000011874e+01
R2L_wi[3] 3.4593999578380640e+01
R2L_wi[4] 3.4594000003263425e+01
R2L_wi[5] 5.1891000000000538e+01
R2L_wi[6] 5.1891000000000993e+01
R2L_wi[7] 5.1891000000001476e+01
R2L_wi[8] 3.4727104320561921e+01
R2L_wi[9] 3.4727104382562544e+01
R2L_wi[10] 3.4727104320133236e+01
R2L_wi[11] 3.5925044529478
R2L_wi[12] 3.5925043839506330e+00
R2L_wi[13] 3.5925044519028191e+00
R2L_wi[14] 3.5925043841006428e+00
R2L_wi[15] -2.4397025503680432e+01
R2L_wi[16] -2.4397025610475616e+01
R2L_wi[17] -2.4397025512893386e+01
R2L_wi[18] -5.1890999727834419e+01
R2L_wi[19] -5.1890999670287279e+01
R2L_wi[20] -5.1890999711031704e+01
R2L_wi[21] -3.4594000005390789e+01
R2L_wi[22] -3.4593999999980454e+01
R2L_wi[23] -34.5940000000046
R2L_wi[24] -3.4593999999997322e+00
R2L_wi[25] -3.4593999999997322e+00
R2L_wtn[1] 3.1117410159335979e-01
R2L_wtn[2] 4.1566276924028545e-01
R2L_wtn[3] 5.2110672879870124e-01
R2L_wtn[4] 6.2751095514094679e-01
R2L_wtn[5] 7.8272500486186758e-01
R2L_wtn[6] 9.3934317049632288e-01
R2L_wtn[7] 1.0973747422214157e+00
R2L_wtn[8] 1.2093571141630233e+00
R2L_wtn[9] 1.3223471998530707e+00
R2L_wtn[10] 1.4363530110214868e+00
R2L_wtn[11] 1.4652711987692117e+00
R2L_wtn[12] 1.4944491328262868e+00
R2L_wtn[13] 1.5238890877323485e+00
R2L_wtn[14] 1.5535933585943562e+00
R2L_wtn[15] 1.5061514960837146e+00
R2L_wtn[16] 1.4582835131608016e+00
R2L_wtn[17] 1.4099854189326841e+00
R2L_wtn[18] 1.2852097843109409e+00
R2L_wtn[19] 1.1593108184563208e+00
R2L_wtn[20] 1.0322768064982235e+00
R2L_wtn[21] 0.951937965114959
R2L_wtn[22] 8.7087297705226208e-01
R2L_wtn[23] 7.8907426001351233e-01
R2L_wtn[24] 0.552015333933643
R2L_wtn[25] 2.9900000000000005e-05
R2L_T 1.3849840507790225e+02
R2L_varpi[0] 60
R2L_varpi[1] 2.4186395982970748e+01
R2L_varpi[2] 2.4186395452731428e+01
R2L_varpi[3] 2.8894355435284492e+01
R2L_varpi[4] 2.8894355177083103e+01
R2L_varpi[5] 2.8894355177083103e+01
R2L_varpi[6] 3.1816380006691343e+01
R2L_varpi[7] 3.1816380006691066e+01
R2L_varpi[8] 3.9524315179953653e+01
R2L_varpi[9] 3.9524315179953653e+01
R2L_varpi[10] 4.6570896158385324e+01
R2L_varpi[11] 4.6570896158385324e+01
R2L_varpi[12] 5.3369861013609217e+01
R2L_varpi[13] 5.3369861013609217e+01
R2L_varpi[14] 60
R2L_varpi[15] 60
R2L_varpi[16] 60
R2L_varpi[17] 60
R2L_varpi[18] 60
R2L_varpi[19] 60
R2L_varpi[20] 60
R2L_varpi[21] 60
R2L_varpi[22] 60
R2L_varpi[23] 60
R2L_varpi[24] 60
R2L_varpi[25] 60
R2L_kappa_plus[0] 0
R2L_kappa_plus[1] 4.9061445848666148e+02
R2L_kappa_plus[2] 4.9061445236994655e+02
R2L_kappa_plus[3] 500
R2L_kappa_plus[4] 500
R2L_kappa_plus[5] 500
R2L_kappa_plus[6] 500
R2L_kappa_plus[7] 500
R2L_kappa_plus[8] 500
R2L_kappa_plus[9] 500
R2L_kappa_plus[10] 500
R2L_kappa_plus[11] 500
R2L_kappa_plus[12] 500
R2L_kappa_plus[13] 500
R2L_kappa_plus[14] 500
R2L_kappa_plus[15] 500
R2L_kappa_plus[16] 500
R2L_kappa_plus[17] 500
R2L_kappa_plus[18] 500
R2L_kappa_plus[19] 500
R2L_kappa_plus[20] 500
R2L_kappa_plus[21] 500
R2L_kappa_plus[22] 500
R2L_kappa_plus[23] 500
R2L_kappa_plus[24] 500
R2L_kappa_plus[25] 0
R2L_kappa_minus[0] 0
R2L_kappa_minus[1] 2.2222222222222223e+02
R2L_kappa_minus[2] 0
R2L_kappa_minus[3] 500
R2L_kappa_minus[4] 500
R2L_kappa_minus[5] 500
R2L_kappa_minus[6] 500
R2L_kappa_minus[7] 500
R2L_kappa_minus[8] 500
R2L_kappa_minus[9] 500
R2L_kappa_minus[10] 500
R2L_kappa_minus[11] 500
R2L_kappa_minus[12] 500
R2L_kappa_minus[13] 500
R2L_kappa_minus[14] 500
R2L_kappa_minus[15] 500
R2L_kappa_minus[16] 500
R2L_kappa_minus[17] 500
R2L_kappa_minus[18] 500
R2L_kappa_minus[19] 500
R2L_kappa_minus[20] 500
R2L_kappa_minus[21] 500
R2L_kappa_minus[22] 500
R2L_kappa_minus[23] 500
R2L_kappa_minus[24] 500
R2L_kappa_minus[25] 500
R2L_xi[1] 8.2487658778869954e+03
R2L_xi[2] 6.6810105352487916e-05
R2L_xi[3] 2.6050536052935072e-05
R2L_xi[4] 3.2533336940105091e-05
R2L_xi[5] 0
R2L_xi[6] 0
R2L_xi[7] 0
R2L_xi[8] 0
R2L_xi[9] 0
R2L_xi[10] 0
R2L_xi[11] 0
R2L_xi[12] 0
R2L_xi[13] 0
R2L_xi[14] 0
R2L_xi[15] 0
R2L_xi[16] 0
R2L_xi[17] 0
R2L_xi[18] 0
R2L_xi[19] 0
R2L_xi[20] 0
R2L_xi[21] 0
R2L_xi[22] 2.4948856935225209e-07
R2L_xi[23] 0
R2L_xi[24] 0
R2L_xi[25] 0
